portfol_classical050_1.py
Ipopt 3.12.8: 
==> Warning: Treating 50 binary and 0 integer variables as continous.


******************************************************************************
This program contains Ipopt, a library for large-scale nonlinear optimization.
 Ipopt is released as open source code under the Eclipse Public License (EPL).
         For more information visit http://projects.coin-or.org/Ipopt
******************************************************************************

This is Ipopt version 3.12.8, running with linear solver ma27.

Number of nonzeros in equality constraint Jacobian...:     2600
Number of nonzeros in inequality constraint Jacobian.:      200
Number of nonzeros in Lagrangian Hessian.............:       50

Total number of variables............................:      150
                     variables with only lower bounds:        0
                variables with lower and upper bounds:      100
                     variables with only upper bounds:        0
Total number of equality constraints.................:       51
Total number of inequality constraints...............:       52
        inequality constraints with only lower bounds:        0
   inequality constraints with lower and upper bounds:        0
        inequality constraints with only upper bounds:       52

iter    objective    inf_pr   inf_du lg(mu)  ||d||  lg(rg) alpha_du alpha_pr  ls
   0 -2.9788209e-02 5.00e-01 5.60e-02  -1.0 0.00e+00    -  0.00e+00 0.00e+00   0
   1 -5.9914561e-02 6.66e-16 3.54e+00  -1.0 5.31e+00    -  6.04e-01 1.00e+00f  1
   2 -5.9336454e-02 2.22e-16 1.65e-03  -1.0 3.92e+00    -  1.00e+00 1.00e+00f  1
   3 -5.9694701e-02 1.11e-16 2.38e-03  -2.5 6.14e-03    -  1.00e+00 1.00e+00h  1
   4 -7.8935459e-02 2.22e-16 7.58e-02  -3.8 4.19e-02    -  3.52e-01 1.00e+00f  1
   5 -8.7440298e-02 3.35e-03 1.80e-01  -3.8 1.81e-01    -  6.49e-01 3.35e-01h  1
   6 -9.2907775e-02 3.72e-03 2.58e-01  -3.8 6.24e-02    -  3.71e-01 1.00e+00h  1
   7 -9.3605155e-02 1.30e-03 1.08e-01  -3.8 4.32e-02    -  7.03e-01 1.00e+00h  1
   8 -9.4448864e-02 1.41e-04 1.10e-04  -3.8 4.82e-02    -  1.00e+00 1.00e+00h  1
   9 -9.6923151e-02 3.08e-04 3.15e-02  -5.7 4.32e-02    -  6.16e-01 9.18e-01h  1
iter    objective    inf_pr   inf_du lg(mu)  ||d||  lg(rg) alpha_du alpha_pr  ls
  10 -9.7481124e-02 4.71e-05 2.72e-02  -5.7 1.53e-02    -  5.61e-01 1.00e+00h  1
  11 -9.7689152e-02 1.90e-05 3.04e-03  -5.7 1.95e-02    -  8.02e-01 1.00e+00h  1
  12 -9.7713811e-02 1.36e-06 3.25e-06  -5.7 8.81e-03    -  1.00e+00 1.00e+00h  1
  13 -9.7773238e-02 1.91e-06 3.15e-04  -8.6 3.25e-03    -  8.78e-01 9.99e-01h  1
  14 -9.7774030e-02 2.03e-07 1.98e-06  -8.6 8.35e-04    -  9.98e-01 1.00e+00h  1
  15 -9.7774036e-02 4.11e-08 4.90e-08  -8.6 1.94e-02    -  1.00e+00 1.00e+00h  1
  16 -9.7774008e-02 4.30e-09 8.80e-09  -8.6 3.93e-03    -  1.00e+00 1.00e+00h  1
  17 -9.7774050e-02 2.22e-16 1.32e-09  -9.0 8.68e-05    -  1.00e+00 1.00e+00h  1

Number of Iterations....: 17

                                   (scaled)                 (unscaled)
Objective...............:  -9.7774050290087955e-02   -9.7774050290087955e-02
Dual infeasibility......:   1.3230612924686191e-09    1.3230612924686191e-09
Constraint violation....:   2.2204460492503131e-16    2.2204460492503131e-16
Complementarity.........:   2.4305929030533442e-09    2.4305929030533442e-09
Overall NLP error.......:   2.4305929030533442e-09    2.4305929030533442e-09


Number of objective function evaluations             = 18
Number of objective gradient evaluations             = 18
Number of equality constraint evaluations            = 18
Number of inequality constraint evaluations          = 18
Number of equality constraint Jacobian evaluations   = 18
Number of inequality constraint Jacobian evaluations = 18
Number of Lagrangian Hessian evaluations             = 17
Total CPU secs in IPOPT (w/o function evaluations)   =      0.016
Total CPU secs in NLP function evaluations           =      0.000

EXIT: Optimal Solution Found.

Time elapsed: 0.144213914871